set I := lattuga patata;
set J := ettari semi tuberi concime;

param maxNumProd := 7;
param P :=
lattuga		3000
patata		5000;
param Q :=
ettari		11
semi		70
tuberi		18
concime		145;
param A : ettari semi tuberi concime :=
lattuga   1		 7	  0		 10
patata    1		 0	  3		 20;